
Gurobi 8.1.1 (win64, Python) logging started 03/18/20 10:38:56

Academic license - for non-commercial use only
Read LP format model from file C:\Users\JONASF~1\AppData\Local\Temp\tmp0lqygmf3.pyomo.lp
Reading time = 1.81 seconds
x325010: 307442 rows, 298637 columns, 878285 nonzeros
Changed value of parameter mipgap to 0.01
   Prev: 0.0001  Min: 0.0  Max: 1e+100  Default: 0.0001
Optimize a model with 307442 rows, 298637 columns and 878285 nonzeros
Variable types: 254737 continuous, 43900 integer (43900 binary)
Coefficient statistics:
  Matrix range     [1e-01, 4e+02]
  Objective range  [1e-02, 8e+07]
  Bounds range     [1e+00, 2e+05]
  RHS range        [1e-02, 2e+04]
Presolve removed 141344 rows and 149689 columns
Presolve time: 2.22s
Presolved: 166098 rows, 148948 columns, 507022 nonzeros
Variable types: 105256 continuous, 43692 integer (43692 binary)

Root simplex log...

Iteration    Objective       Primal Inf.    Dual Inf.      Time
       0   -1.1455367e+08   6.374540e+06   0.000000e+00      6s
    7744   -1.0803828e+08   1.284388e+07   0.000000e+00     10s
   21804   -9.6048256e+07   6.798771e+06   0.000000e+00     15s
   36570   -8.6965063e+07   6.924674e+05   0.000000e+00     20s
   59477   -7.8031636e+07   1.053459e+06   0.000000e+00     25s
   78928   -7.4370403e+07   1.309953e+06   0.000000e+00     30s
   94585   -7.3185693e+07   3.923065e+04   0.000000e+00     35s
  104963   -7.3014678e+07   5.229063e+03   0.000000e+00     40s
  106835   -7.3013524e+07   0.000000e+00   0.000000e+00     41s

Root relaxation: objective -7.301352e+07, 106835 iterations, 36.34 seconds
Total elapsed time = 45.95s

    Nodes    |    Current Node    |     Objective Bounds      |     Work
 Expl Unexpl |  Obj  Depth IntInf | Incumbent    BestBd   Gap | It/Node Time

     0     0 -7.301e+07    0 7870          - -7.301e+07      -     -   49s
H    0     0                    -6.39160e+07 -7.301e+07  14.2%     -   53s
H    0     0                    -6.93944e+07 -7.301e+07  5.22%     -   55s
     0     0 -7.283e+07    0 9112 -6.939e+07 -7.283e+07  4.95%     -   87s
H    0     0                    -6.99110e+07 -7.283e+07  4.18%     -   88s
H    0     0                    -6.99265e+07 -7.283e+07  4.15%     -  102s
     0     0 -7.264e+07    0 9544 -6.993e+07 -7.264e+07  3.88%     -  132s
     0     0 -7.258e+07    0 10303 -6.993e+07 -7.258e+07  3.80%     -  174s
     0     0 -7.256e+07    0 10928 -6.993e+07 -7.256e+07  3.76%     -  192s
     0     0 -7.255e+07    0 10896 -6.993e+07 -7.255e+07  3.76%     -  199s
     0     0 -7.255e+07    0 10877 -6.993e+07 -7.255e+07  3.76%     -  201s
     0     0 -7.255e+07    0 10876 -6.993e+07 -7.255e+07  3.76%     -  202s
     0     0 -7.255e+07    0 10878 -6.993e+07 -7.255e+07  3.76%     -  202s
     0     0 -7.249e+07    0 10503 -6.993e+07 -7.249e+07  3.67%     -  233s
     0     0 -7.245e+07    0 9986 -6.993e+07 -7.245e+07  3.61%     -  285s
     0     0 -7.244e+07    0 9593 -6.993e+07 -7.244e+07  3.59%     -  294s
     0     0 -7.243e+07    0 9492 -6.993e+07 -7.243e+07  3.59%     -  298s
     0     0 -7.243e+07    0 9418 -6.993e+07 -7.243e+07  3.59%     -  299s
     0     0 -7.243e+07    0 9421 -6.993e+07 -7.243e+07  3.59%     -  300s
     0     0 -7.240e+07    0 8994 -6.993e+07 -7.240e+07  3.54%     -  318s
     0     0 -7.239e+07    0 8221 -6.993e+07 -7.239e+07  3.52%     -  327s
     0     0 -7.239e+07    0 8213 -6.993e+07 -7.239e+07  3.52%     -  331s
     0     0 -7.239e+07    0 8257 -6.993e+07 -7.239e+07  3.52%     -  333s
     0     0 -7.239e+07    0 8255 -6.993e+07 -7.239e+07  3.52%     -  334s
     0     0 -7.237e+07    0 7276 -6.993e+07 -7.237e+07  3.49%     -  345s
H    0     0                    -7.17438e+07 -7.237e+07  0.87%     -  347s

Cutting planes:
  Gomory: 72
  Cover: 828
  Implied bound: 433
  Clique: 1
  MIR: 7415
  StrongCG: 1
  Flow cover: 12264
  Zero half: 6

Explored 1 nodes (223244 simplex iterations) in 347.32 seconds
Thread count was 8 (of 8 available processors)

Solution count 5: -7.17438e+07 -6.99265e+07 -6.9911e+07 ... -6.3916e+07

Optimal solution found (tolerance 1.00e-02)
Best objective -7.174383578320e+07, best bound -7.236776736850e+07, gap 0.8697%
